HUN,8,6,62
2,93,4,18,0,99,1,28,5,29,3,63
5,89,3,59,2,84,0,72,1,15,4,64
0,42,2,34,1,82,4,13,5,87,3,87
1,41,0,18,5,66,4,29,2,20,3,47
0,11,2,39,5,25,4,18,1,35,3,60
1,77,4,21,3,75,5,91,0,50,2,97
2,81,4,91,1,9,5,57,3,34,0,79
4,95,3,20,5,28,1,18,0,73,2,82
